0 0 2 0
2 0 2 1
1 0 1 0
3 0 1 8
2 1 3 6
5 0 1 13
2 2 5 10
5 1 3 16
5 2 5 19
1 1 2 8
3 1 0 13
0 1 0 18
1 2 4 13
4 0 2 13
3 2 2 22
4 1 1 22
4 2 4 25
2 3 0 21
3 3 3 27
0 2 1 25
0 3 3 31
1 3 5 28
2 4 1 31
3 4 4 30
4 3 5 38
5 3 0 30
1 4 0 40
4 4 0 50
2 5 4 38
0 4 5 42
5 4 4 45
1 5 3 50
4 5 3 54
3 5 5 45
0 5 4 49
5 5 2 49

